Version identifier: 22.1.0.0 | 2022-03-09 | 1a383f8ce
CPXPARAM_Read_DataCheck                          1
CPXPARAM_Threads                                 1
CPXPARAM_TimeLimit                               3600
Tried aggregator 2 times.
MIP Presolve eliminated 1030 rows and 288 columns.
MIP Presolve modified 3965 coefficients.
Aggregator did 65 substitutions.
Reduced MIP has 771 rows, 177 columns, and 4234 nonzeros.
Reduced MIP has 134 binaries, 0 generals, 0 SOSs, and 0 indicators.
Presolve time = 0.01 sec. (9.27 ticks)
Probing fixed 2 vars, tightened 0 bounds.
Probing time = 0.00 sec. (1.97 ticks)
Tried aggregator 1 time.
Detecting symmetries...
MIP Presolve eliminated 2 rows and 2 columns.
Reduced MIP has 769 rows, 175 columns, and 4214 nonzeros.
Reduced MIP has 132 binaries, 0 generals, 0 SOSs, and 0 indicators.
Presolve time = 0.00 sec. (2.17 ticks)
Probing time = 0.00 sec. (2.19 ticks)
Clique table members: 678.
MIP emphasis: balance optimality and feasibility.
MIP search method: dynamic search.
Parallel mode: none, using 1 thread.
Root relaxation solution time = 0.00 sec. (2.51 ticks)

        Nodes                                         Cuts/
   Node  Left     Objective  IInf  Best Integer    Best Bound    ItCnt     Gap

      0     0       12.4900    36                     12.4900       79         
      0     0       12.4900    12                    Cuts: 43      102         
      0     0       12.4900    18                    Cuts: 56      148         
      0     0       12.4900     8                     Cuts: 7      160         
*     0+    0                           12.4900       12.4900             0.00%
      0     0        cutoff             12.4900       12.4900      160    0.00%
Elapsed time = 0.08 sec. (69.45 ticks, tree = 0.01 MB, solutions = 1)

GUB cover cuts applied:  10
Clique cuts applied:  7
Cover cuts applied:  1
Implied bound cuts applied:  4
Mixed integer rounding cuts applied:  3
Zero-half cuts applied:  5
Gomory fractional cuts applied:  2

Root node processing (before b&c):
  Real time             =    0.08 sec. (69.48 ticks)
Sequential b&c:
  Real time             =    0.00 sec. (0.00 ticks)
                          ------------
Total (root+branch&cut) =    0.08 sec. (69.48 ticks)
